# Solution for model r10_t18_m4_9
# Finished Task: 18 / 18
# Makespan: 542.0, Total Distance: 1301.0, Total Time: 0.0660
# R O S F
0 0 25 0.0 0.0
1 1 20 0.0 0.0
2 2 22 0.0 0.0
3 3 17 0.0 0.0
4 4 21 0.0 0.0
5 5 11 0.0 0.0
6 6 15 0.0 0.0
7 7 18 0.0 0.0
8 8 23 0.0 0.0
9 9 -1 0.0 0.0
10 0 -1 477.0 506.0
11 5 -1 439.0 477.0
12 2 19 416.0 439.0
13 3 27 392.0 416.0
14 4 -1 377.0 413.0
15 6 -1 367.0 406.0
16 1 -1 477.0 503.0
17 3 13 228.0 261.0
18 7 -1 217.0 243.0
19 2 -1 506.0 542.0
20 1 16 317.0 339.0
21 4 24 41.0 78.0
22 2 26 159.0 185.0
23 8 -1 317.0 352.0
24 4 14 182.0 202.0
25 0 10 295.0 317.0
26 2 12 339.0 377.0
27 3 -1 506.0 529.0
